sat
(:added-eqs                       32882
 :arith-eq-adapter                875
 :arith-bound-propagations-lp     5120
 :arith-branch                    15
 :arith-conflicts                 3655
 :arith-cube-calls                9
 :arith-diseq                     14505
 :arith-fixed-eqs                 8318
 :arith-gcd-calls                 347
 :arith-gomory-cuts               4
 :arith-grobner-calls             491
 :arith-grobner-conflicts         146
 :arith-hnf-calls                 2
 :arith-horner-calls              137
 :arith-horner-conflicts          3
 :arith-horner-cross-nested-forms 14306
 :arith-lower                     19240
 :arith-make-feasible             13933
 :arith-max-columns               905
 :arith-max-rows                  494
 :arith-nla-add-bounds            107
 :arith-nla-lemmas                1874
 :arith-nla-propagate-bounds      1105
 :arith-nla-propagate-eq          15247
 :arith-nra-calls                 56
 :arith-offset-eqs                4331
 :arith-patches                   347
 :arith-patches-success           316
 :arith-upper                     26773
 :binary-propagations             97603
 :cnf-encoding-aux-vars           12
 :conflicts                       951
 :decisions                       194044
 :del-clause                      3904
 :elim-unconstrained              112
 :final-checks                    1048
 :max-memory                      31.59
 :memory                          19.06
 :minimized-lits                  6623
 :mk-bool-var                     8956
 :mk-clause                       6975
 :mk-clause-binary                7705
 :nlsat-conflicts                 1
 :nlsat-decisions                 314
 :nlsat-propagations              14823
 :nlsat-stages                    4013
 :num-allocs                      1770980288
 :num-checks                      1
 :propagations                    157510
 :restarts                        8
 :rlimit-count                    5463202
 :solve-eqs-elim-vars             82
 :solve-eqs-steps                 860
 :time                            2.08
 :total-time                      2.09)
